150 574912252
28 128 62 5 81 9 135 145 48 91 18 92 133 39 15 57 12 16 79 147 45 11 137 99 4 84 41 21 86 96 60 25 123 117 98 50 70 63 34 114 143 144 136 6 134 43 95 36 121 148 68 46 90 115 47 77 17 53 82 35 58 56 126 150 27 66 20 139 59 116 146 105 1 26 149 87 42 64 89 40 85 24 74 129 141 3 106 22 23 140 73 71 94 101 122 67 52 113 14 10 76 118 65 29 61 100 31 37 109 88 75 142 51 104 54 93 138 110 30 111 132 112 8 124 125 13 80 102 33 49 44 19 120 97 2 108 78 107 32 119 127 103 131 38 7 69 83 72 55 130 
